p cnf 10 22
c We can deduce: -4 -3 -6
-1 -2 0
1 2 0
-4 -5 0
4 5 0
2 3 5 7 0
-6 -7 0
6 7 0
5 -10 0
7 -10 0
1 -10 0
1 5 7 8 0
-3 -8 0
3 8 0
2 5 7 8 0
-1 -5 -7 -8 10 0
8 -10 0
9 10 0
-2 -5 -7 -8 9 0
8 -9 0
5 -9 0
7 -9 0
2 -9 0
